Data path: /scratch/opt/lxu/CFLG/benchmarks/Kgroup_A
Instance: K100.6.red
Result path: /scratch/opt/lxu/CFLG/results/Kgroup_A
Solver: Gurobi
Time limit: 3600
Formulation: LEFP
Cover: Small
julia --project=. src/main.jl /scratch/opt/lxu/CFLG/benchmarks/Kgroup_A K100.6.red /scratch/opt/lxu/CFLG/results/Kgroup_A Gurobi 3600 LEFP Small
The latest version of Julia in the `release` channel is 1.11.5+0.x64.linux.gnu. You currently have `1.11.4+0.x64.linux.gnu` installed. Run:

  juliaup update

in your terminal shell to install Julia 1.11.5+0.x64.linux.gnu and update the `release` channel to that version.
/scratch/opt/lxu/CFLG/benchmarks/Kgroup_A Gurobi 3600.0 /scratch/opt/lxu/CFLG/results/Kgroup_A K100.6.red LEFP Small
/scratch/opt/lxu/CFLG/benchmarks/Kgroup_A/K100.6.red

 read graph
data loaded


after absorb:22 22

max_piece:10
problem_graph/original graph: node: 36/22 edge: 78/64 dlt: 0.11624183538188686 break_avg_len: 0.28902398851751193 break_max_len: 1.0elapsed CPU time: 0.058077 seconds
Set parameter TokenServer to value "solice01.zib.de"
Set parameter Threads to value 1
Set parameter OutputFlag to value 1
Set parameter MIPGap to value 0.0001
Set parameter MIPGapAbs to value 1
Set parameter TimeLimit to value 3599.941923

 more cuts:false
formulation:LEFP44 34 15

 model loaded

Gurobi Optimizer version 12.0.1 build v12.0.1rc0 (linux64 - "Debian GNU/Linux 12 (bookworm)")

CPU model: Intel(R) Xeon(R) Gold 5122 CPU @ 3.60GHz, instruction set [SSE2|AVX|AVX2|AVX512]
Thread count: 8 physical cores, 16 logical processors, using up to 1 threads

Non-default parameters:
TimeLimit  3599.941923
MIPGapAbs  1
Threads  1

Optimize a model with 1877 rows, 1020 columns and 4497 nonzeros
Model fingerprint: 0x42bc4960
Variable types: 270 continuous, 750 integer (662 binary)
Coefficient statistics:
  Matrix range     [2e-02, 1e+00]
  Objective range  [1e+00, 1e+00]
  Bounds range     [2e-02, 1e+00]
  RHS range        [2e-04, 4e+00]
Presolve removed 974 rows and 281 columns
Presolve time: 0.06s
Presolved: 903 rows, 739 columns, 4597 nonzeros
Variable types: 202 continuous, 537 integer (520 binary)
Found heuristic solution: objective 118.0000000
Found heuristic solution: objective 107.0000000

Root relaxation: objective 6.939769e+01, 333 iterations, 0.00 seconds (0.00 work units)

    Nodes    |    Current Node    |     Objective Bounds      |     Work
 Expl Unexpl |  Obj  Depth IntInf | Incumbent    BestBd   Gap | It/Node Time

     0     0   69.39769    0   55  107.00000   69.39769  35.1%     -    0s
H    0     0                     101.0000000   69.39769  31.3%     -    0s
H    0     0                     100.0000000   69.39769  30.6%     -    0s
H    0     0                      99.0000000   69.39769  29.9%     -    0s
     0     0   70.00000    0   80   99.00000   70.00000  29.3%     -    0s
     0     0   70.50062    0   96   99.00000   70.50062  28.8%     -    0s
     0     0   70.60490    0   92   99.00000   70.60490  28.7%     -    0s
     0     0   70.60490    0   94   99.00000   70.60490  28.7%     -    0s
     0     0   71.67257    0   99   99.00000   71.67257  27.6%     -    0s
H    0     0                      90.0000000   71.75754  20.3%     -    0s
H    0     0                      89.0000000   71.75754  19.4%     -    0s
     0     0   72.55037    0   82   89.00000   72.55037  18.5%     -    0s
     0     0   72.56660    0   72   89.00000   72.56660  18.5%     -    0s
     0     0   72.56822    0   82   89.00000   72.56822  18.5%     -    0s
     0     0   72.57245    0   82   89.00000   72.57245  18.5%     -    0s
     0     0   73.27157    0   74   89.00000   73.27157  17.7%     -    0s
     0     0   73.40490    0   78   89.00000   73.40490  17.5%     -    0s
     0     0   73.40490    0   76   89.00000   73.40490  17.5%     -    0s
     0     0   73.40490    0   86   89.00000   73.40490  17.5%     -    0s
     0     0   73.40490    0   88   89.00000   73.40490  17.5%     -    0s
     0     0   73.40490    0   92   89.00000   73.40490  17.5%     -    0s
     0     0   73.40490    0   93   89.00000   73.40490  17.5%     -    0s
     0     0   73.40490    0   94   89.00000   73.40490  17.5%     -    0s
     0     0   73.40490    0   94   89.00000   73.40490  17.5%     -    0s
     0     0   73.40490    0   94   89.00000   73.40490  17.5%     -    0s
     0     0   73.40490    0   67   89.00000   73.40490  17.5%     -    0s
     0     2   73.50214    0   67   89.00000   73.50214  17.4%     -    0s
H  105    92                      88.0000000   74.13067  15.8%  14.0    0s
*  213   176             111      84.0000000   74.13067  11.7%  10.3    0s
H  273   202                      82.0000000   74.13165  9.60%  12.1    0s
H  435   292                      81.0000000   74.13342  8.48%  13.3    0s
H  619   419                      80.0000000   76.33333  4.58%  13.2    1s
  2724  1450   77.20010   37   43   80.00000   76.66667  4.17%  24.8    5s
  6581  3577   78.20310   36   55   80.00000   77.00000  3.75%  24.4   10s
  9722  5138   78.16284   41   42   80.00000   77.00000  3.75%  24.7   15s
 10217  5418   78.00000   58   48   80.00000   77.00000  3.75%  24.7   20s
 12377  6066   78.01529   54   53   80.00000   77.00000  3.75%  25.5   25s
*12554  5191              80      79.0000000   77.00000  2.53%  25.4   25s
 15580  5305   77.01953   38   50   79.00000   77.00000  2.53%  26.3   30s
 18505  5492   78.00000   55   34   79.00000   77.00000  2.53%  27.5   35s
 21615  5691     cutoff   38        79.00000   77.00000  2.53%  27.7   40s
 24740  5823   78.00000   58   25   79.00000   77.00000  2.53%  28.0   45s
 27839  6783   78.00000   41   45   79.00000   77.00000  2.53%  28.4   50s
 30676  7730   77.00000   32   49   79.00000   77.00000  2.53%  29.4   55s
 33563  8854     cutoff   50        79.00000   77.00000  2.53%  30.1   60s
 36337  9982   77.36526   40   62   79.00000   77.00111  2.53%  30.7   65s
 39045 10779   77.01559   39   66   79.00000   77.01474  2.51%  31.1   70s
 42068 11608   77.28487   57   44   79.00000   77.02728  2.50%  31.6   75s
 45260 12219   77.41626   40   73   79.00000   77.03957  2.48%  32.0   80s
 47974 12672   77.33489   56   46   79.00000   77.05755  2.46%  32.5   85s
 50615 12863   78.00000   36   39   79.00000   77.07729  2.43%  33.1   90s
 53198 13153     cutoff   44        79.00000   77.09916  2.41%  33.8   95s
 55755 13324   78.00000   46   33   79.00000   77.12059  2.38%  34.3  100s
 58129 13297   78.00000   47   22   79.00000   77.14789  2.34%  34.9  105s
 60785 13381   78.00000   43   50   79.00000   77.17661  2.31%  35.5  110s
 63369 13494   78.00000   49   34   79.00000   77.20203  2.28%  36.0  115s
 65794 13508   78.00000   52   25   79.00000   77.23688  2.23%  36.4  120s
 68191 13726     cutoff   48        79.00000   77.26359  2.20%  36.6  125s
 70756 13776   78.00000   44   30   79.00000   77.30521  2.15%  36.9  130s
 73597 13898   78.00000   55   45   79.00000   77.34838  2.09%  37.2  135s
 76087 13846     cutoff   36        79.00000   77.40313  2.02%  37.6  140s
 79001 13974   78.00000   66   32   79.00000   77.46915  1.94%  37.8  145s
 81287 13643     cutoff   45        79.00000   77.50000  1.90%  38.5  150s
 83499 13374     cutoff   48        79.00000   77.50000  1.90%  39.1  155s
 86530 13875   78.00000   40   56   79.00000   77.50000  1.90%  39.1  160s
 89568 14060   78.00000   53   63   79.00000   77.55741  1.83%  39.1  165s
 91983 14079   78.00000   44   43   79.00000   77.65115  1.71%  39.3  170s
 95258 14383   77.93009   59   38   79.00000   77.73373  1.60%  39.2  175s
 98406 14461     cutoff   42        79.00000   77.92968  1.35%  39.3  180s
 102330 15419   77.97349   44   47   79.00000   77.97349  1.30%  38.9  185s

Cutting planes:
  Learned: 1
  Gomory: 39
  Cover: 173
  Implied bound: 31
  MIR: 219
  Mixing: 29
  StrongCG: 5
  Flow cover: 505
  GUB cover: 13
  Inf proof: 21
  Zero half: 20
  RLT: 23
  Relax-and-lift: 51
  BQP: 1

Explored 104530 nodes (4080108 simplex iterations) in 188.72 seconds (154.33 work units)
Thread count was 1 (of 16 available processors)

Solution count 10: 79 79 80 ... 99

Optimal solution found (tolerance 1.00e-04)
Best objective 7.900000000000e+01, best bound 7.800000000000e+01, gap 1.2658%

User-callback calls 278628, time in user-callback 0.24 sec

 sepatime0
Stat(MathOptInterface.OPTIMAL, 79.0, 78.00000000000001, 0.012658227848101085, 0.0, 0.058077, 188.7230839729309, 104530, Main.CFLG.LEFP, "", #undef)
